************************************************************************
file with basedata            : mm36_.bas
initial value random generator: 1110346736
************************************************************************
projects                      :  1
jobs (incl. supersource/sink ):  12
horizon                       :  88
RESOURCES
  - renewable                 :  2   R
  - nonrenewable              :  2   N
  - doubly constrained        :  0   D
************************************************************************
PROJECT INFORMATION:
pronr.  #jobs rel.date duedate tardcost  MPM-Time
    1     10      0       14        2       14
************************************************************************
PRECEDENCE RELATIONS:
jobnr.    #modes  #successors   successors
   1        1          3           2   3   4
   2        3          1          11
   3        3          1           5
   4        3          3           6   9  11
   5        3          2           6   7
   6        3          1          10
   7        3          3           8  10  11
   8        3          1           9
   9        3          1          12
  10        3          1          12
  11        3          1          12
  12        1          0        
************************************************************************
REQUESTS/DURATIONS:
jobnr. mode duration  R 1  R 2  N 1  N 2
------------------------------------------------------------------------
  1      1     0       0    0    0    0
  2      1     2       1    7    0    2
         2     6       1    7    7    0
         3    10       1    6    5    0
  3      1     1       6    9    5    0
         2     4       4    5    0    8
         3     8       4    1    5    0
  4      1     8       3    8    0    2
         2    10       2    6    4    0
         3    10       1    7    6    0
  5      1     1      10    5    0    8
         2     3      10    5    6    0
         3     6      10    4    0    6
  6      1     3       7   10    8    0
         2    10       5   10    6    0
         3    10       3   10    0    3
  7      1     1       5    7   10    0
         2     4       5    5    0   10
         3     9       4    3    9    0
  8      1     6       8    7    9    0
         2     9       8    5    0    7
         3     9       8    5    5    0
  9      1     2       2    5    9    0
         2     7       2    2    0    1
         3    10       2    2    9    0
 10      1     3       8    9    0    9
         2     3       8   10    0    8
         3     6       8    7    8    0
 11      1     5       6    1    8    0
         2     9       6    1    0    5
         3    10       6    1    6    0
 12      1     0       0    0    0    0
************************************************************************
RESOURCEAVAILABILITIES:
  R 1  R 2  N 1  N 2
   12   13   76   55
************************************************************************
MAXIMAL LAGS:
from  to  type  delay
    1   12   ES      0
    1    2   ES      0
    2   12   ES      0
    1    3   ES      0
    3   12   ES      0
    1    4   ES      0
    4   12   ES      0
    1    5   ES      0
    5   12   ES      0
    1    6   ES      0
    6   12   ES      0
    1    7   ES      0
    7   12   ES      0
    1    8   ES      0
    8   12   ES      0
    1    9   ES      0
    9   12   ES      0
    1   10   ES      0
   10   12   ES      0
    1   11   ES      0
   11   12   ES      0
    1   12   ES      0
    2   11   SS      9
    2   11   SE      5
    2   11   ES      2
    2   11   EE    -12
    3    5   SS      1
    3    5   SE      8
    3    5   ES      9
    3    5   EE      8
    4    6   SS    -11
    4    6   SE     -2
    4    6   ES      1
    4    6   EE      1
    4    9   SS     -4
    4    9   SE     -9
    4    9   ES      9
    4    9   EE      4
    4   11   SS      2
    4   11   SE      3
    4   11   ES     -1
    4   11   EE      4
    5    6   SS     12
    5    6   SE    -11
    5    6   ES     11
    5    6   EE     -5
    5    7   SS    -11
    5    7   SE     -4
    5    7   ES      1
    5    7   EE      5
    6   10   SS      2
    6   10   SE     -2
    6   10   ES    -12
    6   10   EE      0
    7    8   SS     -6
    7    8   SE     -2
    7    8   ES    -10
    7    8   EE      6
    7   10   SS    -12
    7   10   SE     11
    7   10   ES     -5
    7   10   EE     10
    7   11   SS      1
    7   11   SE    -10
    7   11   ES     -5
    7   11   EE     -6
    8    9   SS     -7
    8    9   SE     -2
    8    9   ES     -3
    8    9   EE    -10
************************************************************************
